container_size = [75, 36, 24];
Box = B(1..8);
no_boxes = [39, 39, 17, 45, 30, 25, 23, 32];
box_size =
[|       Length: Width: Height: 
 | B(1):      3,     2,      2
 | B(2):      4,     3,      3
 | B(3):     10,     2,      2
 | B(4):      4,     3,      2
 | B(5):     15,     2,      2
 | B(6):      5,     5,      2
 | B(7):      8,     4,      3
 | B(8):      6,     3,      3
 |];
